words_hard_train/1774.qaiger
aag 41 13 0 1 28
2
4
12
14
20
22
28
30
38
40
50
52
56
82
6 2 5
8 3 4
10 7 9
16 12 14
18 10 17
24 20 22
26 21 23
32 29 31
34 27 33
36 28 30
42 38 40
44 37 43
46 34 45
48 25 47
54 50 52
58 54 56
60 39 41
62 58 61
64 62 34
66 48 65
68 13 15
70 67 69
72 18 71
74 11 69
76 17 25
78 76 47
80 74 79
82 73 81
i0 2 y2[7]
i1 1 x2[4]
i2 2 y2[6]
i3 1 x2[3]
i4 2 y2[5]
i5 1 x2[2]
i6 2 y2[4]
i7 1 x2[1]
i8 2 y2[3]
i9 1 x2[0]
i10 2 y2[0]
i11 2 y2[2]
i12 2 y2[1]
o0 bv[0]
c
simplified
  <
    add
      2 y2
      add
        1
        << 3
          1 x2
    1
