words_hard_train/1774.qaiger.qdimacs
p cnf 41 85
a 2 7 11 15 20 0
e 1 3 4 5 6 8 9 10 12 13 14 16 17 18 19 21 22 23 24 25 26 27 28 29 30 31 32 33 34 35 36 37 38 39 40 41 0
-1 2 3 0
1 -3 0
-2 -3 0
1 -2 4 0
-1 -4 0
2 -4 0
3 4 5 0
-3 -5 0
-4 -5 0
-6 -7 8 0
6 -8 0
7 -8 0
-5 8 9 0
5 -9 0
-8 -9 0
-10 -11 12 0
10 -12 0
11 -12 0
10 11 13 0
-10 -13 0
-11 -13 0
14 15 16 0
-14 -16 0
-15 -16 0
13 16 17 0
-13 -17 0
-16 -17 0
-14 -15 18 0
14 -18 0
15 -18 0
-19 -20 21 0
19 -21 0
20 -21 0
18 21 22 0
-18 -22 0
-21 -22 0
-17 22 23 0
17 -23 0
-22 -23 0
12 23 24 0
-12 -24 0
-23 -24 0
-25 -26 27 0
25 -27 0
26 -27 0
-27 -28 29 0
27 -29 0
28 -29 0
19 20 30 0
-19 -30 0
-20 -30 0
-29 30 31 0
29 -31 0
-30 -31 0
-31 -17 32 0
31 -32 0
17 -32 0
-24 32 33 0
24 -33 0
-32 -33 0
6 7 34 0
-6 -34 0
-7 -34 0
33 34 35 0
-33 -35 0
-34 -35 0
-9 35 36 0
9 -36 0
-35 -36 0
5 34 37 0
-5 -37 0
-34 -37 0
8 12 38 0
-8 -38 0
-12 -38 0
-38 23 39 0
38 -39 0
-23 -39 0
-37 39 40 0
37 -40 0
-39 -40 0
36 40 41 0
-36 -41 0
-40 -41 0
41 0
